Route #1: 34 33 58 17 50 26 59 55
Route #2: 51 10 61 57 35 11 25 60 12
Route #3: 53 38 19 48 56 15
Route #4: 52 36 37 44 22 16
Route #5: 20 40 6 32 29 43 8 7
Route #6: 18 30 46 1 54 9 5 14
Route #7: 2 45 47 27 21 4 49 31 28
Route #8: 41 23 39 3 42 24 13
cost 1470.0738525390625